NAME : in_house_7_23
TYPE : TSP
DIMENSION : 7
EDGE_WEIGHT_TYPE : EXPLICIT
EDGE_WEIGHT_FORMAT : UPPER_ROW
COMMENT : INVERSION_SHIFT=4
EDGE_WEIGHT_SECTION
24
11
41
16
30
21
22
15
40
38
41
49
12
2
13
40
8
46
32
34
41
